% seed = 8625861

mint = 47;
% maxt = 118;

nActs = 22;
dur = [0,4,2,1,6,4,7,10,9,7,10,10,2,10,7,5,10,1,4,1,8,0];

nSkills = 4;
sreq = [| 0,0,0,0,
	| 1,1,3,0,
	| 3,2,0,2,
	| 1,3,0,3,
	| 1,0,2,1,
	| 3,0,1,2,
	| 2,1,2,0,
	| 0,1,2,2,
	| 2,0,2,2,
	| 0,3,3,3,
	| 3,2,0,1,
	| 2,3,0,3,
	| 3,0,1,3,
	| 1,0,3,2,
	| 2,2,0,2,
	| 3,1,0,1,
	| 2,0,1,1,
	| 1,0,1,2,
	| 3,0,2,2,
	| 0,1,1,3,
	| 3,3,0,2,
	| 0,0,0,0, |];

nResources = 10;
mastery = [| false,false,true,true,
	| false,true,true,false,
	| true,true,false,true,
	| false,false,false,true,
	| false,true,false,true,
	| true,true,true,false,
	| true,false,false,false,
	| false,false,true,false,
	| false,false,true,false,
	| true,false,false,true, |];

nPrecs = 43;
pred = [1,1,1,2,2,2,3,3,3,4,4,4,5,5,5,6,6,6,7,8,8,9,9,10,11,11,11,12,13,13,14,14,14,15,16,16,16,17,17,18,19,20,21];
succ = [2,3,4,13,12,5,10,11,16,12,7,8,9,11,6,14,7,8,17,15,16,14,16,13,17,20,15,14,18,19,20,21,15,19,17,18,20,19,21,21,22,22,22];

nUnrels = 82;
unpred = [2,2,2,3,3,3,3,3,3,3,3,4,4,4,4,4,4,5,5,5,6,6,6,6,6,7,7,7,7,7,7,7,7,7,7,7,8,8,8,8,8,8,9,9,9,9,10,10,10,10,10,10,10,11,11,11,11,11,12,12,12,12,13,13,13,13,13,14,14,14,15,15,15,15,15,17,17,18,18,19,19,20];
unsucc = [3,4,10,4,5,6,7,8,9,12,14,5,6,9,10,11,13,10,12,13,9,10,11,12,13,8,9,10,11,12,13,14,15,16,18,20,9,10,11,12,13,14,10,11,12,13,11,12,14,15,16,17,20,12,13,14,16,18,13,16,17,18,14,15,16,17,20,16,17,18,16,17,18,20,21,18,20,19,20,20,21,21];

USEFUL_RES = [{},
	{1,2,3,5,6,7,8,9,10},
	{1,2,3,4,5,6,7,10},
	{1,2,3,4,5,6,7,10},
	{1,2,3,4,5,6,7,8,9,10},
	{1,2,3,4,5,6,7,8,9,10},
	{1,2,3,5,6,7,8,9,10},
	{1,2,3,4,5,6,8,9,10},
	{1,2,3,4,5,6,7,8,9,10},
	{1,2,3,4,5,6,8,9,10},
	{1,2,3,4,5,6,7,10},
	{1,2,3,4,5,6,7,10},
	{1,2,3,4,5,6,7,8,9,10},
	{1,2,3,4,5,6,7,8,9,10},
	{1,2,3,4,5,6,7,10},
	{1,2,3,4,5,6,7,10},
	{1,2,3,4,5,6,7,8,9,10},
	{1,2,3,4,5,6,7,8,9,10},
	{1,2,3,4,5,6,7,8,9,10},
	{1,2,3,4,5,6,8,9,10},
	{1,2,3,4,5,6,7,10},
	{}];

POTENTIAL_ACT = [{2,3,4,5,6,7,8,9,10,11,12,13,14,15,16,17,18,19,20,21},
	{2,3,4,5,6,7,8,9,10,11,12,13,14,15,16,17,18,19,20,21},
	{2,3,4,5,6,7,8,9,10,11,12,13,14,15,16,17,18,19,20,21},
	{3,4,5,6,8,9,10,11,12,13,14,15,16,17,18,19,20,21},
	{2,3,4,5,6,7,8,9,10,11,12,13,14,15,16,17,18,19,20,21},
	{2,3,4,5,6,7,8,9,10,11,12,13,14,15,16,17,18,19,20,21},
	{2,3,4,5,6,7,9,11,12,13,14,15,16,17,18,19,21},
	{2,5,6,7,8,9,10,13,14,17,18,19,20},
	{2,5,6,7,8,9,10,13,14,17,18,19,20},
	{2,3,4,5,6,7,8,9,10,11,12,13,14,15,16,17,18,19,20,21}];
